S = 7;
start = [|0,0,0,0,3,0,33,0,0,0,0,0,0,15,0,0,0,0,0,0,46,0,0,0,0,0,0,5,0,0,0,0,0,12,0,0,0,35,1,0,0,0,0,0,0,0,0,0,0|
0,31,0,0,0,0,0,0,47,1,0,36,0,0,0,0,0,0,0,0,0,0,0,0,0,0,9,0,0,0,0,0,0,0,0,44,0,0,0,49,0,0,38,0,0,0,0,0,0|
0,0,0,0,0,0,0,0,0,0,0,38,3,0,0,0,0,0,0,0,0,0,34,1,0,14,0,0,0,0,0,0,0,0,0,13,32,30,0,0,0,17,21,0,25,0,0,0,0|
0,32,0,0,0,0,0,0,0,0,0,5,34,0,49,0,0,43,0,0,35,0,0,0,0,0,0,0,0,0,0,0,30,0,0,0,39,0,0,0,0,0,0,0,0,0,0,0,0|
0,0,0,29,17,15,0,0,0,0,6,0,0,0,0,0,14,0,0,0,0,0,0,21,0,0,0,0,0,0,0,48,1,0,41,0,0,33,0,18,0,0,0,0,47,13,0,0,3|
10,0,0,0,43,0,0,0,0,0,0,0,48,0,0,0,0,0,0,0,0,0,3,28,0,0,0,0,37,0,0,0,0,44,0,0,0,16,0,0,0,0,0,32,0,40,0,0,0|
0,11,0,48,0,0,0,37,0,0,10,0,0,0,0,0,0,0,0,0,0,0,0,0,0,0,0,0,38,0,0,0,0,0,0,8,0,41,26,28,25,0,0,0,0,0,0,16,0|
0,0,0,0,0,0,0,0,0,23,0,15,0,1,0,0,0,2,0,0,0,0,0,0,0,0,0,0,0,0,0,0,0,0,0,0,0,0,24,0,0,0,0,0,0,0,0,0,0|
0,0,0,0,0,0,0,0,0,0,0,16,0,0,36,0,0,0,0,0,0,0,0,0,20,0,34,0,0,0,43,14,0,0,0,0,0,0,0,0,0,0,24,0,0,30,2,0,0|
0,0,0,31,0,2,11,0,0,0,0,0,0,0,0,0,0,29,9,0,13,0,0,0,41,45,0,10,44,0,37,0,0,0,0,0,0,0,34,3,0,0,49,0,0,0,25,0,14|
18,0,10,30,0,0,41,0,3,0,0,0,0,20,25,19,0,0,0,33,0,14,0,0,22,0,0,0,0,12,0,0,5,29,1,0,0,7,0,44,0,0,0,0,0,0,0,0,43|
0,0,0,0,0,0,0,0,0,0,0,0,0,0,0,0,0,0,0,0,0,0,37,0,0,0,0,26,0,0,25,0,0,0,0,0,0,0,0,0,35,0,0,0,0,0,0,0,0|
0,43,0,0,0,0,0,30,0,0,0,0,0,0,15,0,0,0,6,0,14,9,0,0,0,0,0,46,0,0,0,0,27,0,0,0,0,0,0,0,0,0,0,0,0,0,0,0,0|
0,1,0,0,0,0,0,0,0,0,0,0,0,0,0,0,0,0,0,32,0,0,0,0,36,0,12,19,0,0,0,0,0,0,0,0,0,0,0,0,0,0,0,23,0,0,0,0,0|
0,0,0,0,0,4,0,0,46,0,0,0,44,0,0,0,0,0,0,0,0,25,1,0,0,48,27,0,0,0,9,0,0,0,0,0,0,0,0,0,0,0,0,0,0,0,0,0,0|
33,30,49,0,24,0,36,0,0,0,0,0,0,0,41,0,0,0,0,0,0,35,0,16,0,0,0,0,0,0,0,0,0,0,0,0,0,34,0,0,0,18,0,37,0,0,0,0,0|
0,0,0,0,0,0,0,0,0,22,0,0,0,5,0,0,37,0,27,30,0,0,0,0,6,0,0,0,28,0,0,0,0,0,0,0,0,0,0,0,0,0,0,0,0,0,0,0,48|
0,0,0,0,0,0,0,0,0,47,0,0,0,0,45,0,0,0,46,10,26,32,0,0,3,0,0,0,0,4,0,0,42,34,43,0,0,0,30,0,0,0,0,0,0,0,0,0,0|
0,0,0,0,0,11,47,0,0,0,0,0,0,0,0,24,0,0,0,0,0,0,12,36,0,5,22,0,0,0,0,0,0,39,0,49,29,0,0,0,0,0,35,0,16,0,0,0,0|
0,46,0,0,0,0,0,0,0,34,0,12,0,11,0,0,0,0,0,0,0,0,4,0,0,0,0,0,0,0,0,29,0,0,0,0,0,0,27,0,0,0,0,18,0,0,33,0,0|
38,17,0,0,0,0,0,0,10,0,0,0,0,0,0,0,0,0,0,12,0,0,0,45,0,0,0,0,0,14,0,0,0,0,0,0,9,0,0,47,39,0,0,6,0,0,0,0,0|
0,0,0,0,7,0,0,0,0,0,0,0,0,0,0,0,0,0,0,0,0,3,0,0,0,0,0,45,17,0,38,0,0,0,0,0,0,0,0,0,0,0,36,0,15,0,0,0,25|
0,9,0,0,0,0,0,0,0,0,0,0,0,0,0,0,27,0,0,0,44,0,0,30,0,7,0,23,0,36,4,0,12,0,0,0,0,0,0,22,0,0,0,0,6,20,0,3,0|
0,0,44,0,0,19,0,0,0,26,0,0,0,0,0,42,0,0,0,0,0,0,0,0,0,0,0,0,0,0,0,0,0,0,0,0,15,0,46,0,0,30,0,14,0,0,0,4,0|
0,0,0,0,0,13,20,0,0,0,0,0,0,0,0,0,0,0,0,0,11,0,9,41,0,6,0,0,0,0,39,7,44,0,0,0,0,0,0,0,0,0,0,0,0,0,0,0,0|
0,0,0,0,0,0,0,0,0,0,19,0,0,46,0,0,0,0,0,0,41,0,0,0,0,0,0,0,15,0,0,0,0,0,0,0,0,0,0,0,0,0,0,0,0,0,0,0,0|
17,0,0,0,0,27,0,0,0,0,0,0,2,0,0,28,0,0,0,0,0,0,0,14,0,0,46,0,0,0,30,0,0,0,0,0,0,0,7,0,0,0,0,0,0,0,0,0,0|
0,49,0,0,0,0,0,36,0,21,0,0,12,0,29,0,0,0,0,5,9,0,0,0,0,0,0,0,40,0,18,0,0,0,0,10,0,19,0,0,0,26,0,0,0,0,0,48,0|
0,0,0,0,0,0,31,0,0,0,0,0,38,21,0,0,0,0,0,0,0,7,0,0,0,0,0,0,0,0,0,0,0,0,42,0,0,15,12,0,6,0,3,10,0,0,0,0,0|
0,0,0,0,0,0,5,25,0,0,0,0,20,0,0,0,0,0,7,0,0,0,0,0,0,0,0,0,0,0,0,0,0,0,0,0,0,0,0,0,0,0,0,0,0,0,34,0,0|
21,0,0,0,0,0,0,0,0,0,0,11,0,0,6,0,0,0,0,34,0,22,0,0,0,0,0,20,0,0,0,0,0,0,0,0,0,0,0,0,46,0,0,0,0,0,0,0,0|
0,0,0,0,0,0,0,0,0,0,0,22,0,0,0,27,0,0,0,0,10,0,0,0,0,0,0,39,0,0,0,0,0,0,0,0,0,36,0,0,0,0,0,0,0,0,46,31,0|
0,0,0,0,0,47,0,0,0,0,0,0,14,37,4,0,0,0,0,0,0,0,0,0,0,9,0,0,0,0,0,0,0,17,0,0,1,0,0,0,0,0,0,0,0,0,0,33,0|
0,0,0,0,0,0,0,0,0,0,0,34,0,0,0,0,0,45,14,0,0,0,5,0,0,0,0,0,4,0,23,0,0,0,0,2,0,0,0,0,0,0,0,8,0,6,11,0,19|
15,0,8,0,0,0,23,0,0,0,0,40,0,0,0,22,0,0,0,0,0,0,0,0,0,0,48,0,2,0,0,0,0,0,0,0,0,17,0,0,0,0,0,0,0,0,47,0,0|
0,0,0,16,0,0,0,0,0,0,0,0,0,0,0,0,0,0,0,0,0,40,0,0,0,0,0,0,0,0,5,0,0,0,0,0,0,25,0,29,9,0,0,0,0,0,0,0,0|
4,0,0,0,0,0,0,20,0,5,0,0,11,0,0,0,0,0,0,0,18,36,0,0,0,0,0,0,32,0,0,0,0,0,0,0,46,26,28,0,22,0,0,0,0,0,0,40,0|
0,0,0,6,0,0,0,0,0,0,0,0,49,0,0,0,0,0,0,0,0,0,0,0,27,25,0,0,29,0,0,44,0,0,33,0,34,0,0,0,0,0,0,0,0,0,0,0,15|
0,0,0,0,0,0,0,0,0,0,0,0,0,0,0,0,0,0,0,0,0,19,28,11,0,0,0,0,0,0,0,0,0,0,16,0,0,0,0,14,0,0,0,0,0,46,0,0,0|
0,0,0,0,0,0,0,0,0,30,0,0,9,0,19,16,0,0,0,0,0,0,0,0,0,0,0,0,0,0,41,46,0,0,0,0,6,4,0,0,32,0,37,0,0,0,0,0,0|
0,0,0,0,0,0,0,0,0,0,14,0,0,22,0,0,0,0,0,0,0,0,32,0,9,0,0,0,0,19,0,0,0,0,0,38,48,0,0,0,15,0,0,36,0,21,0,0,0|
14,0,0,33,0,0,0,38,0,0,0,0,0,0,0,0,0,0,0,0,0,0,0,0,0,0,0,0,0,0,0,0,34,0,0,0,0,0,0,0,0,0,0,0,0,39,0,0,0|
42,0,0,4,8,17,0,0,0,0,0,28,36,0,13,0,0,0,0,0,0,0,26,0,0,0,0,0,0,40,14,0,0,0,0,0,0,11,0,0,0,0,0,0,0,0,0,20,46|
0,0,12,0,0,0,0,0,11,45,0,43,4,0,0,0,0,0,0,0,49,0,0,0,0,0,18,29,0,15,0,0,0,0,46,0,17,0,0,0,0,0,0,0,0,0,0,0,0|
0,0,0,0,0,0,0,0,0,0,16,0,0,0,0,0,0,0,0,27,0,0,0,0,0,0,19,0,36,35,0,0,0,0,0,0,0,0,0,0,7,0,1,0,10,0,18,0,0|
0,0,0,18,0,0,15,0,0,0,0,0,0,0,1,0,0,0,0,0,0,0,0,44,40,0,0,0,0,29,47,0,0,0,0,0,0,9,0,46,0,0,0,43,0,0,0,0,0|
0,0,0,0,11,0,0,0,31,38,0,18,15,0,44,39,0,0,0,0,0,0,0,24,0,0,0,47,0,0,0,0,45,0,17,0,0,0,0,0,0,0,0,0,0,0,0,0,0|
37,0,0,0,0,0,0,0,0,24,0,0,0,0,0,30,0,26,0,0,0,0,27,0,17,0,0,0,0,0,0,0,25,0,0,0,0,0,0,34,0,0,0,0,0,0,0,0,0|
0,0,0,0,0,0,0,0,0,41,0,0,0,13,47,0,25,0,0,24,0,0,38,0,0,0,0,0,0,0,0,0,0,0,0,0,0,3,10,48,12,32,27,0,23,8,0,0,0|];